nApps = 217
nRes = 9
nActs = 446
nNetworks = 6

assignmentToResources = [3,1,3,2,2,1,2,1,3,1,2,2,2,2,2,2,2,1,2,1,3,1,3,3,1,1,2,2,1,1,2,2,2,1,2,1,1,2,1,1,3,3,3,1,3,2,2,2,3,3,3,3,2,2,3,3,1,3,1,3,2,3,2,3,1,2,3,3,3,3,3,2,1,1,2,1,1,1,2,1,3,1,1,1,1,1,1,3,1,1,1,1,1,1,1,3,1,3,1,2,6,6,4,4,6,6,6,6,6,5,5,5,5,4,4,5,5,5,4,4,6,6,6,6,4,4,4,4,4,5,5,5,5,5,5,5,5,5,5,5,4,4,6,6,4,4,6,6,6,6,6,4,5,5,5,5,5,5,5,4,4,4,4,4,5,5,5,5,5,5,5,5,5,4,4,4,4,5,5,5,4,4,4,4,6,6,6,6,6,6,6,5,5,6,6,6,5,5,5,6,6,6,6,6,6,4,4,4,4,4,5,5,5,5,6,6,5,6,6,6,5,6,6,6,5,5,5,5,4,5,5,4,4,4,4,4,4,4,6,4,6,6,4,4,5,4,8,5,9,5,7,5,9,4,9,6,7,5,9,4,9,4,8,4,8,5,7,5,9,5,9,6,8,6,7,4,8,6,8,5,9,6,8,6,8,5,7,5,7,6,7,5,9,4,8,6,8,4,9,4,8,8,7,8,9,8,7,7,7,8,7,7,7,9,9,9,7,9,7,8,9,8,8,8,7,9,9,9,9,9,7,7,7,7,7,7,7,9,9,7,9,9,8,8,7,9,8,8,7,7,8,7,8,7,7,7,7,7,9,9,9,8,8,8,9,7,7,9,7,9,7,7,7,7,8,9,9,8,7,9,7,9,9,9,9,7,7,7,7,7,7,7,9,7,7,7,8,9,7,7,8,7,7,8,8,7,9,8,8,9,9,7,9,9,9,7,7,9,8,7,7,7,7,7,8,9,9,7,7,8,9,9,8,8,9,8,9,8,9,7,8,8,7,8,9,7];

processingTimes = [88,120,104,152,136,112,128,72,136,120,136,48,120,136,88,104,104,152,136,64,128,120,88,120,104,128,48,64,128,104,96,120,112,112,88,120,136,136,64,152,136,152,160,104,88,104,56,96,72,160,144,112,160,72,64,104,112,56,112,128,136,80,48,128,48,80,104,64,96,80,168,104,152,88,128,64,112,96,96,104,176,128,120,128,128,64,56,64,128,128,104,128,136,72,128,128,152,72,128,136,500,4,5,4,13,3,500,4,500,500,3,4,4,3,3,4,3,4,4,500,4,200,8,8,5,4,4,8,8,4,5,4,4,3,500,3,500,3,4,4,3,4,500,3,4,3,500,5,500,4,4,3,3,4,3,500,4,8,500,4,3,3,3,5,500,3,3,3,500,3,4,3,3,8,8,3,3,4,4,4,3,4,5,3,4,5,4,3,3,500,500,500,4,3,500,3,3,500,4,5,5,5,3,4,4,3,13,3,3,100,500,4,500,3,3,3,100,3,4,4,3,3,3,4,4,500,8,500,8,4,4,3,500,4,500,4,4,4,3,4,3,3,500,23,4,3,3,3,3,5,5,4,4,4,4,5,5,4,4,23,23,8,8,4,4,3,3,3,3,8,8,3,3,3,3,5,5,3,3,500,500,500,500,500,500,500,500,500,500,500,500,500,500,500,500,500,500,3,3,3,3,500,4,5,4,13,3,500,4,500,500,3,4,4,3,3,4,3,4,4,500,4,200,8,8,5,4,4,8,8,4,5,4,4,3,500,3,500,3,4,4,3,4,500,3,4,3,500,5,500,4,4,3,3,4,3,500,4,8,500,4,3,3,3,5,500,3,3,3,500,3,4,3,3,8,8,3,3,4,4,4,3,4,5,3,4,5,4,3,3,500,500,500,4,3,500,3,3,500,4,5,5,5,3,4,4,3,13,3,3,100,500,4,500,3,3,3,100,3,4,4,3,3,3,4,4,500,8,500,8,4,4,3,500,4,500,4,4,4,3,4,3,3,500,23,4];

periods = [100000,100000,10000,10000,20000,10000,20000,10000,2000,10000,100000,10000,100000,100000,20000,20000,100000,5000,5000,100000,20000,10000,20000,10000,100000,10000,100000,20000,100000,10000,100000,20000,20000,10000,5000,100000,20000,2000,10000,20000,10000,10000,10000,2000,20000,20000,10000,10000,100000,10000,100000,10000,20000,20000,100000,10000,20000,20000,1000,10000,10000,10000,1000,20000,10000,100000,20000,100000,20000,100000,1000,1000,100000,100000,10000,20000,100000,100000,20000,50000,20000,100000,100000,100000,10000,20000,10000,10000,20000,20000,10000,20000,20000,20000,10000,20000,100000,5000,20000,20000,100000,100000,100000,100000,10000,10000,10000,10000,10000,10000,10000,20000,20000,10000,10000,20000,20000,20000,10000,10000,2000,2000,2000,2000,10000,10000,10000,10000,10000,100000,100000,10000,10000,100000,100000,20000,20000,20000,100000,100000,5000,100000,20000,20000,10000,10000,20000,20000,20000,20000,10000,100000,100000,100000,20000,20000,20000,20000,20000,100000,100000,100000,10000,10000,100000,100000,100000,100000,100000,20000,20000,20000,20000,100000,100000,20000,20000,2000,2000,2000,10000,20000,20000,20000,10000,10000,10000,10000,10000,10000,20000,10000,10000,10000,100000,10000,20000,20000,20000,100000,100000,100000,10000,10000,10000,20000,20000,1000,1000,1000,10000,10000,10000,10000,10000,10000,1000,20000,20000,20000,100000,100000,20000,1000,10000,10000,10000,10000,100000,20000,20000,100000,10000,20000,10000,20000,10000,10000,20000,100000,5000,5000,20000,20000,20000,100000,100000,100000,100000,20000,20000,20000,20000,20000,20000,10000,10000,10000,10000,10000,10000,20000,20000,20000,20000,20000,20000,20000,20000,20000,20000,20000,20000,5000,5000,5000,5000,20000,20000,20000,20000,20000,20000,20000,20000,20000,20000,20000,20000,20000,20000,10000,10000,10000,10000,10000,10000,10000,10000,10000,10000,100000,100000,100000,100000,10000,10000,10000,10000,10000,10000,10000,20000,20000,10000,10000,20000,20000,20000,10000,10000,2000,2000,2000,2000,10000,10000,10000,10000,10000,100000,100000,10000,10000,100000,100000,20000,20000,20000,100000,100000,5000,100000,20000,20000,10000,10000,20000,20000,20000,20000,10000,100000,100000,100000,20000,20000,20000,20000,20000,100000,100000,100000,10000,10000,100000,100000,100000,100000,100000,20000,20000,20000,20000,100000,100000,20000,20000,2000,2000,2000,10000,20000,20000,20000,10000,10000,10000,10000,10000,10000,20000,10000,10000,10000,100000,10000,20000,20000,20000,100000,100000,100000,10000,10000,10000,20000,20000,1000,1000,1000,10000,10000,10000,10000,10000,10000,1000,20000,20000,20000,100000,100000,20000,1000,10000,10000,10000,10000,100000,20000,20000,100000,10000,20000,10000,20000,10000,10000,20000,100000,5000,5000,20000,20000,20000];

assignmentToClusters = [1,2,3,4,5,6,7,8,9,10,11,6,12,13,14,7,15,16,17,18,19,20,21,22,23,24,25,26,27,28,29,30,31,32,16,33,34,35,36,21,6,37,32,38,21,21,22,22,39,40,2,41,7,21,42,43,7,21,44,45,46,47,48,49,22,2,50,51,52,53,54,55,56,57,58,7,59,60,19,61,5,62,63,64,58,65,66,6,67,68,69,7,5,21,70,7,71,16,72,5,73,74,75,76,77,78,79,80,81,82,83,84,85,86,87,88,89,90,91,92,93,94,95,96,97,98,99,100,101,102,103,104,105,106,107,108,109,110,111,112,113,114,115,116,117,118,119,120,121,122,123,124,125,126,127,128,129,130,131,132,133,134,135,136,137,138,139,140,141,142,143,144,145,146,147,148,149,150,151,152,153,154,155,156,157,158,159,160,161,162,163,164,165,166,167,168,169,170,171,172,173,174,175,176,177,178,179,180,181,182,183,184,185,186,187,188,189,190,191,192,193,194,195,196,197,198,199,200,201,202,203,204,205,206,207,208,209,210,211,212,213,214,215,216,217,2,2,2,2,5,5,5,5,5,5,6,6,6,6,6,6,7,7,7,7,7,7,7,7,7,7,7,7,16,16,16,16,19,19,21,21,21,21,21,21,21,21,21,21,21,21,22,22,22,22,22,22,32,32,58,58,73,74,75,76,77,78,79,80,81,82,83,84,85,86,87,88,89,90,91,92,93,94,95,96,97,98,99,100,101,102,103,104,105,106,107,108,109,110,111,112,113,114,115,116,117,118,119,120,121,122,123,124,125,126,127,128,129,130,131,132,133,134,135,136,137,138,139,140,141,142,143,144,145,146,147,148,149,150,151,152,153,154,155,156,157,158,159,160,161,162,163,164,165,166,167,168,169,170,171,172,173,174,175,176,177,178,179,180,181,182,183,184,185,186,187,188,189,190,191,192,193,194,195,196,197,198,199,200,201,202,203,204,205,206,207,208,209,210,211,212,213,214,215,216,217];

precedenceAdjList = [[],[],[],[],[],[256],[262],[],[],[],[],[],[],[],[],[264],[],[274],[],[],[],[],[280],[292],[],[],[],[],[],[],[],[],[],[],[276],[],[],[],[],[290],[260],[],[298],[],[],[282,284],[296],[294],[],[],[248],[],[272],[],[],[],[],[],[],[],[],[],[],[],[],[246],[],[],[],[],[],[],[],[],[300],[56],[],[],[278],[],[252,254],[],[],[],[],[],[],[258],[],[],[],[266],[250],[286,288],[],[268,270],[],[],[],[],[],[],[],[],[],[],[],[],[],[],[],[],[],[],[],[],[],[],[],[],[],[],[],[],[],[],[],[],[],[],[],[],[],[],[],[],[],[],[],[],[],[],[],[],[],[],[],[],[],[],[],[],[],[],[],[],[],[],[],[],[],[],[],[],[],[],[],[],[],[],[],[],[],[],[],[],[],[],[],[],[],[],[],[],[],[],[],[],[],[],[],[],[],[],[],[],[],[],[],[],[],[],[],[],[],[],[],[],[],[],[],[],[],[],[],[],[],[],[],[],[],[],[],[],[],[],[],[],[],[],[],[],[],[],[],[],[],[],[],[],[],[],[],[],[],[1],[245],[65],[247],[4],[249],[99],[251],[92],[253],[87],[255],[11],[257],[5],[259],[75],[261],[75],[263],[15],[265],[15],[267],[6],[269],[95],[271],[97],[273],[17],[275],[20],[277],[45],[279],[57],[281],[44],[283],[45],[285],[53],[287],[22],[289],[47],[291],[64],[293],[23],[295],[33],[297],[84],[299],[100],[101],[102],[103],[104],[105],[106],[107],[108],[109],[110],[111],[112],[113],[114],[115],[116],[117],[118],[119],[120],[121],[122],[123],[124],[125],[126],[127],[128],[129],[130],[131],[132],[133],[134],[135],[136],[137],[138],[139],[140],[141],[142],[143],[144],[145],[146],[147],[148],[149],[150],[151],[152],[153],[154],[155],[156],[157],[158],[159],[160],[161],[162],[163],[164],[165],[166],[167],[168],[169],[170],[171],[172],[173],[174],[175],[176],[177],[178],[179],[180],[181],[182],[183],[184],[185],[186],[187],[188],[189],[190],[191],[192],[193],[194],[195],[196],[197],[198],[199],[200],[201],[202],[203],[204],[205],[206],[207],[208],[209],[210],[211],[212],[213],[214],[215],[216],[217],[218],[219],[220],[221],[222],[223],[224],[225],[226],[227],[228],[229],[230],[231],[232],[233],[234],[235],[236],[237],[238],[239],[240],[241],[242],[243],[244]];